c *********************************
c * Circuit generated by BenCGen
c *
c * Parity_297
c *
c * Ports with 1 gate(s): 1
c * Ports with 2 gate(s): 297
c * Total gates: 298
c *********************************
p cnf 595 1189
1 300 0
-1 -300 0
1 -299 0
300 -299 0
-1 -300 299 0
1 2 -301 0
-1 2 301 0
1 -2 301 0
-1 -2 -301 0
3 4 -302 0
-3 4 302 0
3 -4 302 0
-3 -4 -302 0
5 6 -303 0
-5 6 303 0
5 -6 303 0
-5 -6 -303 0
7 8 -304 0
-7 8 304 0
7 -8 304 0
-7 -8 -304 0
9 10 -305 0
-9 10 305 0
9 -10 305 0
-9 -10 -305 0
11 12 -306 0
-11 12 306 0
11 -12 306 0
-11 -12 -306 0
13 14 -307 0
-13 14 307 0
13 -14 307 0
-13 -14 -307 0
15 16 -308 0
-15 16 308 0
15 -16 308 0
-15 -16 -308 0
17 18 -309 0
-17 18 309 0
17 -18 309 0
-17 -18 -309 0
19 20 -310 0
-19 20 310 0
19 -20 310 0
-19 -20 -310 0
21 22 -311 0
-21 22 311 0
21 -22 311 0
-21 -22 -311 0
23 24 -312 0
-23 24 312 0
23 -24 312 0
-23 -24 -312 0
25 26 -313 0
-25 26 313 0
25 -26 313 0
-25 -26 -313 0
27 28 -314 0
-27 28 314 0
27 -28 314 0
-27 -28 -314 0
29 30 -315 0
-29 30 315 0
29 -30 315 0
-29 -30 -315 0
31 32 -316 0
-31 32 316 0
31 -32 316 0
-31 -32 -316 0
33 34 -317 0
-33 34 317 0
33 -34 317 0
-33 -34 -317 0
35 36 -318 0
-35 36 318 0
35 -36 318 0
-35 -36 -318 0
37 38 -319 0
-37 38 319 0
37 -38 319 0
-37 -38 -319 0
39 40 -320 0
-39 40 320 0
39 -40 320 0
-39 -40 -320 0
41 42 -321 0
-41 42 321 0
41 -42 321 0
-41 -42 -321 0
43 44 -322 0
-43 44 322 0
43 -44 322 0
-43 -44 -322 0
45 46 -323 0
-45 46 323 0
45 -46 323 0
-45 -46 -323 0
47 48 -324 0
-47 48 324 0
47 -48 324 0
-47 -48 -324 0
49 50 -325 0
-49 50 325 0
49 -50 325 0
-49 -50 -325 0
51 52 -326 0
-51 52 326 0
51 -52 326 0
-51 -52 -326 0
53 54 -327 0
-53 54 327 0
53 -54 327 0
-53 -54 -327 0
55 56 -328 0
-55 56 328 0
55 -56 328 0
-55 -56 -328 0
57 58 -329 0
-57 58 329 0
57 -58 329 0
-57 -58 -329 0
59 60 -330 0
-59 60 330 0
59 -60 330 0
-59 -60 -330 0
61 62 -331 0
-61 62 331 0
61 -62 331 0
-61 -62 -331 0
63 64 -332 0
-63 64 332 0
63 -64 332 0
-63 -64 -332 0
65 66 -333 0
-65 66 333 0
65 -66 333 0
-65 -66 -333 0
67 68 -334 0
-67 68 334 0
67 -68 334 0
-67 -68 -334 0
69 70 -335 0
-69 70 335 0
69 -70 335 0
-69 -70 -335 0
71 72 -336 0
-71 72 336 0
71 -72 336 0
-71 -72 -336 0
73 74 -337 0
-73 74 337 0
73 -74 337 0
-73 -74 -337 0
75 76 -338 0
-75 76 338 0
75 -76 338 0
-75 -76 -338 0
77 78 -339 0
-77 78 339 0
77 -78 339 0
-77 -78 -339 0
79 80 -340 0
-79 80 340 0
79 -80 340 0
-79 -80 -340 0
81 82 -341 0
-81 82 341 0
81 -82 341 0
-81 -82 -341 0
83 84 -342 0
-83 84 342 0
83 -84 342 0
-83 -84 -342 0
85 86 -343 0
-85 86 343 0
85 -86 343 0
-85 -86 -343 0
87 88 -344 0
-87 88 344 0
87 -88 344 0
-87 -88 -344 0
89 90 -345 0
-89 90 345 0
89 -90 345 0
-89 -90 -345 0
91 92 -346 0
-91 92 346 0
91 -92 346 0
-91 -92 -346 0
93 94 -347 0
-93 94 347 0
93 -94 347 0
-93 -94 -347 0
95 96 -348 0
-95 96 348 0
95 -96 348 0
-95 -96 -348 0
97 98 -349 0
-97 98 349 0
97 -98 349 0
-97 -98 -349 0
99 100 -350 0
-99 100 350 0
99 -100 350 0
-99 -100 -350 0
101 102 -351 0
-101 102 351 0
101 -102 351 0
-101 -102 -351 0
103 104 -352 0
-103 104 352 0
103 -104 352 0
-103 -104 -352 0
105 106 -353 0
-105 106 353 0
105 -106 353 0
-105 -106 -353 0
107 108 -354 0
-107 108 354 0
107 -108 354 0
-107 -108 -354 0
109 110 -355 0
-109 110 355 0
109 -110 355 0
-109 -110 -355 0
111 112 -356 0
-111 112 356 0
111 -112 356 0
-111 -112 -356 0
113 114 -357 0
-113 114 357 0
113 -114 357 0
-113 -114 -357 0
115 116 -358 0
-115 116 358 0
115 -116 358 0
-115 -116 -358 0
117 118 -359 0
-117 118 359 0
117 -118 359 0
-117 -118 -359 0
119 120 -360 0
-119 120 360 0
119 -120 360 0
-119 -120 -360 0
121 122 -361 0
-121 122 361 0
121 -122 361 0
-121 -122 -361 0
123 124 -362 0
-123 124 362 0
123 -124 362 0
-123 -124 -362 0
125 126 -363 0
-125 126 363 0
125 -126 363 0
-125 -126 -363 0
127 128 -364 0
-127 128 364 0
127 -128 364 0
-127 -128 -364 0
129 130 -365 0
-129 130 365 0
129 -130 365 0
-129 -130 -365 0
131 132 -366 0
-131 132 366 0
131 -132 366 0
-131 -132 -366 0
133 134 -367 0
-133 134 367 0
133 -134 367 0
-133 -134 -367 0
135 136 -368 0
-135 136 368 0
135 -136 368 0
-135 -136 -368 0
137 138 -369 0
-137 138 369 0
137 -138 369 0
-137 -138 -369 0
139 140 -370 0
-139 140 370 0
139 -140 370 0
-139 -140 -370 0
141 142 -371 0
-141 142 371 0
141 -142 371 0
-141 -142 -371 0
143 144 -372 0
-143 144 372 0
143 -144 372 0
-143 -144 -372 0
145 146 -373 0
-145 146 373 0
145 -146 373 0
-145 -146 -373 0
147 148 -374 0
-147 148 374 0
147 -148 374 0
-147 -148 -374 0
149 150 -375 0
-149 150 375 0
149 -150 375 0
-149 -150 -375 0
151 152 -376 0
-151 152 376 0
151 -152 376 0
-151 -152 -376 0
153 154 -377 0
-153 154 377 0
153 -154 377 0
-153 -154 -377 0
155 156 -378 0
-155 156 378 0
155 -156 378 0
-155 -156 -378 0
157 158 -379 0
-157 158 379 0
157 -158 379 0
-157 -158 -379 0
159 160 -380 0
-159 160 380 0
159 -160 380 0
-159 -160 -380 0
161 162 -381 0
-161 162 381 0
161 -162 381 0
-161 -162 -381 0
163 164 -382 0
-163 164 382 0
163 -164 382 0
-163 -164 -382 0
165 166 -383 0
-165 166 383 0
165 -166 383 0
-165 -166 -383 0
167 168 -384 0
-167 168 384 0
167 -168 384 0
-167 -168 -384 0
169 170 -385 0
-169 170 385 0
169 -170 385 0
-169 -170 -385 0
171 172 -386 0
-171 172 386 0
171 -172 386 0
-171 -172 -386 0
173 174 -387 0
-173 174 387 0
173 -174 387 0
-173 -174 -387 0
175 176 -388 0
-175 176 388 0
175 -176 388 0
-175 -176 -388 0
177 178 -389 0
-177 178 389 0
177 -178 389 0
-177 -178 -389 0
179 180 -390 0
-179 180 390 0
179 -180 390 0
-179 -180 -390 0
181 182 -391 0
-181 182 391 0
181 -182 391 0
-181 -182 -391 0
183 184 -392 0
-183 184 392 0
183 -184 392 0
-183 -184 -392 0
185 186 -393 0
-185 186 393 0
185 -186 393 0
-185 -186 -393 0
187 188 -394 0
-187 188 394 0
187 -188 394 0
-187 -188 -394 0
189 190 -395 0
-189 190 395 0
189 -190 395 0
-189 -190 -395 0
191 192 -396 0
-191 192 396 0
191 -192 396 0
-191 -192 -396 0
193 194 -397 0
-193 194 397 0
193 -194 397 0
-193 -194 -397 0
195 196 -398 0
-195 196 398 0
195 -196 398 0
-195 -196 -398 0
197 198 -399 0
-197 198 399 0
197 -198 399 0
-197 -198 -399 0
199 200 -400 0
-199 200 400 0
199 -200 400 0
-199 -200 -400 0
201 202 -401 0
-201 202 401 0
201 -202 401 0
-201 -202 -401 0
203 204 -402 0
-203 204 402 0
203 -204 402 0
-203 -204 -402 0
205 206 -403 0
-205 206 403 0
205 -206 403 0
-205 -206 -403 0
207 208 -404 0
-207 208 404 0
207 -208 404 0
-207 -208 -404 0
209 210 -405 0
-209 210 405 0
209 -210 405 0
-209 -210 -405 0
211 212 -406 0
-211 212 406 0
211 -212 406 0
-211 -212 -406 0
213 214 -407 0
-213 214 407 0
213 -214 407 0
-213 -214 -407 0
215 216 -408 0
-215 216 408 0
215 -216 408 0
-215 -216 -408 0
217 218 -409 0
-217 218 409 0
217 -218 409 0
-217 -218 -409 0
219 220 -410 0
-219 220 410 0
219 -220 410 0
-219 -220 -410 0
221 222 -411 0
-221 222 411 0
221 -222 411 0
-221 -222 -411 0
223 224 -412 0
-223 224 412 0
223 -224 412 0
-223 -224 -412 0
225 226 -413 0
-225 226 413 0
225 -226 413 0
-225 -226 -413 0
227 228 -414 0
-227 228 414 0
227 -228 414 0
-227 -228 -414 0
229 230 -415 0
-229 230 415 0
229 -230 415 0
-229 -230 -415 0
231 232 -416 0
-231 232 416 0
231 -232 416 0
-231 -232 -416 0
233 234 -417 0
-233 234 417 0
233 -234 417 0
-233 -234 -417 0
235 236 -418 0
-235 236 418 0
235 -236 418 0
-235 -236 -418 0
237 238 -419 0
-237 238 419 0
237 -238 419 0
-237 -238 -419 0
239 240 -420 0
-239 240 420 0
239 -240 420 0
-239 -240 -420 0
241 242 -421 0
-241 242 421 0
241 -242 421 0
-241 -242 -421 0
243 244 -422 0
-243 244 422 0
243 -244 422 0
-243 -244 -422 0
245 246 -423 0
-245 246 423 0
245 -246 423 0
-245 -246 -423 0
247 248 -424 0
-247 248 424 0
247 -248 424 0
-247 -248 -424 0
249 250 -425 0
-249 250 425 0
249 -250 425 0
-249 -250 -425 0
251 252 -426 0
-251 252 426 0
251 -252 426 0
-251 -252 -426 0
253 254 -427 0
-253 254 427 0
253 -254 427 0
-253 -254 -427 0
255 256 -428 0
-255 256 428 0
255 -256 428 0
-255 -256 -428 0
257 258 -429 0
-257 258 429 0
257 -258 429 0
-257 -258 -429 0
259 260 -430 0
-259 260 430 0
259 -260 430 0
-259 -260 -430 0
261 262 -431 0
-261 262 431 0
261 -262 431 0
-261 -262 -431 0
263 264 -432 0
-263 264 432 0
263 -264 432 0
-263 -264 -432 0
265 266 -433 0
-265 266 433 0
265 -266 433 0
-265 -266 -433 0
267 268 -434 0
-267 268 434 0
267 -268 434 0
-267 -268 -434 0
269 270 -435 0
-269 270 435 0
269 -270 435 0
-269 -270 -435 0
271 272 -436 0
-271 272 436 0
271 -272 436 0
-271 -272 -436 0
273 274 -437 0
-273 274 437 0
273 -274 437 0
-273 -274 -437 0
275 276 -438 0
-275 276 438 0
275 -276 438 0
-275 -276 -438 0
277 278 -439 0
-277 278 439 0
277 -278 439 0
-277 -278 -439 0
279 280 -440 0
-279 280 440 0
279 -280 440 0
-279 -280 -440 0
281 282 -441 0
-281 282 441 0
281 -282 441 0
-281 -282 -441 0
283 284 -442 0
-283 284 442 0
283 -284 442 0
-283 -284 -442 0
285 286 -443 0
-285 286 443 0
285 -286 443 0
-285 -286 -443 0
287 288 -444 0
-287 288 444 0
287 -288 444 0
-287 -288 -444 0
289 290 -445 0
-289 290 445 0
289 -290 445 0
-289 -290 -445 0
291 292 -446 0
-291 292 446 0
291 -292 446 0
-291 -292 -446 0
293 294 -447 0
-293 294 447 0
293 -294 447 0
-293 -294 -447 0
295 296 -448 0
-295 296 448 0
295 -296 448 0
-295 -296 -448 0
301 302 -449 0
-301 302 449 0
301 -302 449 0
-301 -302 -449 0
303 304 -450 0
-303 304 450 0
303 -304 450 0
-303 -304 -450 0
305 306 -451 0
-305 306 451 0
305 -306 451 0
-305 -306 -451 0
307 308 -452 0
-307 308 452 0
307 -308 452 0
-307 -308 -452 0
309 310 -453 0
-309 310 453 0
309 -310 453 0
-309 -310 -453 0
311 312 -454 0
-311 312 454 0
311 -312 454 0
-311 -312 -454 0
313 314 -455 0
-313 314 455 0
313 -314 455 0
-313 -314 -455 0
315 316 -456 0
-315 316 456 0
315 -316 456 0
-315 -316 -456 0
317 318 -457 0
-317 318 457 0
317 -318 457 0
-317 -318 -457 0
319 320 -458 0
-319 320 458 0
319 -320 458 0
-319 -320 -458 0
321 322 -459 0
-321 322 459 0
321 -322 459 0
-321 -322 -459 0
323 324 -460 0
-323 324 460 0
323 -324 460 0
-323 -324 -460 0
325 326 -461 0
-325 326 461 0
325 -326 461 0
-325 -326 -461 0
327 328 -462 0
-327 328 462 0
327 -328 462 0
-327 -328 -462 0
329 330 -463 0
-329 330 463 0
329 -330 463 0
-329 -330 -463 0
331 332 -464 0
-331 332 464 0
331 -332 464 0
-331 -332 -464 0
333 334 -465 0
-333 334 465 0
333 -334 465 0
-333 -334 -465 0
335 336 -466 0
-335 336 466 0
335 -336 466 0
-335 -336 -466 0
337 338 -467 0
-337 338 467 0
337 -338 467 0
-337 -338 -467 0
339 340 -468 0
-339 340 468 0
339 -340 468 0
-339 -340 -468 0
341 342 -469 0
-341 342 469 0
341 -342 469 0
-341 -342 -469 0
343 344 -470 0
-343 344 470 0
343 -344 470 0
-343 -344 -470 0
345 346 -471 0
-345 346 471 0
345 -346 471 0
-345 -346 -471 0
347 348 -472 0
-347 348 472 0
347 -348 472 0
-347 -348 -472 0
349 350 -473 0
-349 350 473 0
349 -350 473 0
-349 -350 -473 0
351 352 -474 0
-351 352 474 0
351 -352 474 0
-351 -352 -474 0
353 354 -475 0
-353 354 475 0
353 -354 475 0
-353 -354 -475 0
355 356 -476 0
-355 356 476 0
355 -356 476 0
-355 -356 -476 0
357 358 -477 0
-357 358 477 0
357 -358 477 0
-357 -358 -477 0
359 360 -478 0
-359 360 478 0
359 -360 478 0
-359 -360 -478 0
361 362 -479 0
-361 362 479 0
361 -362 479 0
-361 -362 -479 0
363 364 -480 0
-363 364 480 0
363 -364 480 0
-363 -364 -480 0
365 366 -481 0
-365 366 481 0
365 -366 481 0
-365 -366 -481 0
367 368 -482 0
-367 368 482 0
367 -368 482 0
-367 -368 -482 0
369 370 -483 0
-369 370 483 0
369 -370 483 0
-369 -370 -483 0
371 372 -484 0
-371 372 484 0
371 -372 484 0
-371 -372 -484 0
373 374 -485 0
-373 374 485 0
373 -374 485 0
-373 -374 -485 0
375 376 -486 0
-375 376 486 0
375 -376 486 0
-375 -376 -486 0
377 378 -487 0
-377 378 487 0
377 -378 487 0
-377 -378 -487 0
379 380 -488 0
-379 380 488 0
379 -380 488 0
-379 -380 -488 0
381 382 -489 0
-381 382 489 0
381 -382 489 0
-381 -382 -489 0
383 384 -490 0
-383 384 490 0
383 -384 490 0
-383 -384 -490 0
385 386 -491 0
-385 386 491 0
385 -386 491 0
-385 -386 -491 0
387 388 -492 0
-387 388 492 0
387 -388 492 0
-387 -388 -492 0
389 390 -493 0
-389 390 493 0
389 -390 493 0
-389 -390 -493 0
391 392 -494 0
-391 392 494 0
391 -392 494 0
-391 -392 -494 0
393 394 -495 0
-393 394 495 0
393 -394 495 0
-393 -394 -495 0
395 396 -496 0
-395 396 496 0
395 -396 496 0
-395 -396 -496 0
397 398 -497 0
-397 398 497 0
397 -398 497 0
-397 -398 -497 0
399 400 -498 0
-399 400 498 0
399 -400 498 0
-399 -400 -498 0
401 402 -499 0
-401 402 499 0
401 -402 499 0
-401 -402 -499 0
403 404 -500 0
-403 404 500 0
403 -404 500 0
-403 -404 -500 0
405 406 -501 0
-405 406 501 0
405 -406 501 0
-405 -406 -501 0
407 408 -502 0
-407 408 502 0
407 -408 502 0
-407 -408 -502 0
409 410 -503 0
-409 410 503 0
409 -410 503 0
-409 -410 -503 0
411 412 -504 0
-411 412 504 0
411 -412 504 0
-411 -412 -504 0
413 414 -505 0
-413 414 505 0
413 -414 505 0
-413 -414 -505 0
415 416 -506 0
-415 416 506 0
415 -416 506 0
-415 -416 -506 0
417 418 -507 0
-417 418 507 0
417 -418 507 0
-417 -418 -507 0
419 420 -508 0
-419 420 508 0
419 -420 508 0
-419 -420 -508 0
421 422 -509 0
-421 422 509 0
421 -422 509 0
-421 -422 -509 0
423 424 -510 0
-423 424 510 0
423 -424 510 0
-423 -424 -510 0
425 426 -511 0
-425 426 511 0
425 -426 511 0
-425 -426 -511 0
427 428 -512 0
-427 428 512 0
427 -428 512 0
-427 -428 -512 0
429 430 -513 0
-429 430 513 0
429 -430 513 0
-429 -430 -513 0
431 432 -514 0
-431 432 514 0
431 -432 514 0
-431 -432 -514 0
433 434 -515 0
-433 434 515 0
433 -434 515 0
-433 -434 -515 0
435 436 -516 0
-435 436 516 0
435 -436 516 0
-435 -436 -516 0
437 438 -517 0
-437 438 517 0
437 -438 517 0
-437 -438 -517 0
439 440 -518 0
-439 440 518 0
439 -440 518 0
-439 -440 -518 0
441 442 -519 0
-441 442 519 0
441 -442 519 0
-441 -442 -519 0
443 444 -520 0
-443 444 520 0
443 -444 520 0
-443 -444 -520 0
445 446 -521 0
-445 446 521 0
445 -446 521 0
-445 -446 -521 0
447 448 -522 0
-447 448 522 0
447 -448 522 0
-447 -448 -522 0
449 450 -523 0
-449 450 523 0
449 -450 523 0
-449 -450 -523 0
451 452 -524 0
-451 452 524 0
451 -452 524 0
-451 -452 -524 0
453 454 -525 0
-453 454 525 0
453 -454 525 0
-453 -454 -525 0
455 456 -526 0
-455 456 526 0
455 -456 526 0
-455 -456 -526 0
457 458 -527 0
-457 458 527 0
457 -458 527 0
-457 -458 -527 0
459 460 -528 0
-459 460 528 0
459 -460 528 0
-459 -460 -528 0
461 462 -529 0
-461 462 529 0
461 -462 529 0
-461 -462 -529 0
463 464 -530 0
-463 464 530 0
463 -464 530 0
-463 -464 -530 0
465 466 -531 0
-465 466 531 0
465 -466 531 0
-465 -466 -531 0
467 468 -532 0
-467 468 532 0
467 -468 532 0
-467 -468 -532 0
469 470 -533 0
-469 470 533 0
469 -470 533 0
-469 -470 -533 0
471 472 -534 0
-471 472 534 0
471 -472 534 0
-471 -472 -534 0
473 474 -535 0
-473 474 535 0
473 -474 535 0
-473 -474 -535 0
475 476 -536 0
-475 476 536 0
475 -476 536 0
-475 -476 -536 0
477 478 -537 0
-477 478 537 0
477 -478 537 0
-477 -478 -537 0
479 480 -538 0
-479 480 538 0
479 -480 538 0
-479 -480 -538 0
481 482 -539 0
-481 482 539 0
481 -482 539 0
-481 -482 -539 0
483 484 -540 0
-483 484 540 0
483 -484 540 0
-483 -484 -540 0
485 486 -541 0
-485 486 541 0
485 -486 541 0
-485 -486 -541 0
487 488 -542 0
-487 488 542 0
487 -488 542 0
-487 -488 -542 0
489 490 -543 0
-489 490 543 0
489 -490 543 0
-489 -490 -543 0
491 492 -544 0
-491 492 544 0
491 -492 544 0
-491 -492 -544 0
493 494 -545 0
-493 494 545 0
493 -494 545 0
-493 -494 -545 0
495 496 -546 0
-495 496 546 0
495 -496 546 0
-495 -496 -546 0
497 498 -547 0
-497 498 547 0
497 -498 547 0
-497 -498 -547 0
499 500 -548 0
-499 500 548 0
499 -500 548 0
-499 -500 -548 0
501 502 -549 0
-501 502 549 0
501 -502 549 0
-501 -502 -549 0
503 504 -550 0
-503 504 550 0
503 -504 550 0
-503 -504 -550 0
505 506 -551 0
-505 506 551 0
505 -506 551 0
-505 -506 -551 0
507 508 -552 0
-507 508 552 0
507 -508 552 0
-507 -508 -552 0
509 510 -553 0
-509 510 553 0
509 -510 553 0
-509 -510 -553 0
511 512 -554 0
-511 512 554 0
511 -512 554 0
-511 -512 -554 0
513 514 -555 0
-513 514 555 0
513 -514 555 0
-513 -514 -555 0
515 516 -556 0
-515 516 556 0
515 -516 556 0
-515 -516 -556 0
517 518 -557 0
-517 518 557 0
517 -518 557 0
-517 -518 -557 0
519 520 -558 0
-519 520 558 0
519 -520 558 0
-519 -520 -558 0
521 522 -559 0
-521 522 559 0
521 -522 559 0
-521 -522 -559 0
523 524 -560 0
-523 524 560 0
523 -524 560 0
-523 -524 -560 0
525 526 -561 0
-525 526 561 0
525 -526 561 0
-525 -526 -561 0
527 528 -562 0
-527 528 562 0
527 -528 562 0
-527 -528 -562 0
529 530 -563 0
-529 530 563 0
529 -530 563 0
-529 -530 -563 0
531 532 -564 0
-531 532 564 0
531 -532 564 0
-531 -532 -564 0
533 534 -565 0
-533 534 565 0
533 -534 565 0
-533 -534 -565 0
535 536 -566 0
-535 536 566 0
535 -536 566 0
-535 -536 -566 0
537 538 -567 0
-537 538 567 0
537 -538 567 0
-537 -538 -567 0
539 540 -568 0
-539 540 568 0
539 -540 568 0
-539 -540 -568 0
541 542 -569 0
-541 542 569 0
541 -542 569 0
-541 -542 -569 0
543 544 -570 0
-543 544 570 0
543 -544 570 0
-543 -544 -570 0
545 546 -571 0
-545 546 571 0
545 -546 571 0
-545 -546 -571 0
547 548 -572 0
-547 548 572 0
547 -548 572 0
-547 -548 -572 0
549 550 -573 0
-549 550 573 0
549 -550 573 0
-549 -550 -573 0
551 552 -574 0
-551 552 574 0
551 -552 574 0
-551 -552 -574 0
553 554 -575 0
-553 554 575 0
553 -554 575 0
-553 -554 -575 0
555 556 -576 0
-555 556 576 0
555 -556 576 0
-555 -556 -576 0
557 558 -577 0
-557 558 577 0
557 -558 577 0
-557 -558 -577 0
559 297 -578 0
-559 297 578 0
559 -297 578 0
-559 -297 -578 0
560 561 -579 0
-560 561 579 0
560 -561 579 0
-560 -561 -579 0
562 563 -580 0
-562 563 580 0
562 -563 580 0
-562 -563 -580 0
564 565 -581 0
-564 565 581 0
564 -565 581 0
-564 -565 -581 0
566 567 -582 0
-566 567 582 0
566 -567 582 0
-566 -567 -582 0
568 569 -583 0
-568 569 583 0
568 -569 583 0
-568 -569 -583 0
570 571 -584 0
-570 571 584 0
570 -571 584 0
-570 -571 -584 0
572 573 -585 0
-572 573 585 0
572 -573 585 0
-572 -573 -585 0
574 575 -586 0
-574 575 586 0
574 -575 586 0
-574 -575 -586 0
576 577 -587 0
-576 577 587 0
576 -577 587 0
-576 -577 -587 0
579 580 -588 0
-579 580 588 0
579 -580 588 0
-579 -580 -588 0
581 582 -589 0
-581 582 589 0
581 -582 589 0
-581 -582 -589 0
583 584 -590 0
-583 584 590 0
583 -584 590 0
-583 -584 -590 0
585 586 -591 0
-585 586 591 0
585 -586 591 0
-585 -586 -591 0
587 578 -592 0
-587 578 592 0
587 -578 592 0
-587 -578 -592 0
588 589 -593 0
-588 589 593 0
588 -589 593 0
-588 -589 -593 0
590 591 -594 0
-590 591 594 0
590 -591 594 0
-590 -591 -594 0
593 594 -595 0
-593 594 595 0
593 -594 595 0
-593 -594 -595 0
595 592 -298 0
-595 592 298 0
595 -592 298 0
-595 -592 -298 0
